c --- [ banner ] -------------------------------------------------------------
c 
c CaDiCaL Radically Simplified CDCL SAT Solver
c Copyright (c) 2016-2021 A. Biere, M. Fleury, N. Froleyks
c 
c Version 1.5.2 a5f15211db36c3956764e18194dd5bd63bf3b5e6
c g++ (GCC) 9.3.0 -Wall -Wextra -O3 -DNDEBUG
c Fri Oct 21 01:27:37 EDT 2022 Linux gra-login3 3.10.0-1160.66.1.el7.x86_64 x86_64
c 
c --- [ limit ] --------------------------------------------------------------
c 
c setting conflict limit to 200000 conflicts (due to '200000')
c 
c --- [ parsing input ] ------------------------------------------------------
c 
c reading DIMACS file from '33.cubes5968.adj'
c opening file to read '33.cubes5968.adj'
c found 'p cnf 6160 1595481' header
c parsed 1595481 clauses in 18.78 seconds process time
c closing file '33.cubes5968.adj'
c after reading 1457566817 bytes 1390.0 MB
c 
c --- [ options ] ------------------------------------------------------------
c 
c all options are set to their default value
c 
c --- [ solving ] ------------------------------------------------------------
c 
c time measured in process time since initialization
c 
c  seconds    reductions  redundant   irredundant
c          MB     restarts       trail       variables
c            level   conflicts       glue         remaining
c 
c * 18.79 1379  0 0   0    0    0  0% 0 1595422 2383 39%
c { 20.11 1439  0 0   0    0    0  0% 0 1595422 2383 39%
c i 26.34 1527 241 0  31  202  168 27% 26 1595422 2382 39%
c i 26.43 1528 240 0  32  204  169 27% 26 1595422 2378 39%
c i 27.09 1529 215 0  40  242  196 27% 25 1595422 2377 39%
c - 31.61 1512 188 1  56  300  245 27% 28 430943 2377 39%
c i 32.35 1513 136 1  58  444  325 26% 22 430943 2376 39%
c i 32.35 1513 136 1  58  445  325 26% 22 430943 2375 39%
c i 32.40 1513 134 1  58  453  332 26% 22 430943 2374 39%
c i 32.40 1513 134 1  58  455  333 26% 22 430943 2373 39%
c i 32.44 1513 132 1  58  466  343 26% 22 430943 2372 39%
c i 34.78 1517 128 1  93  626  487 27% 27 430943 2368 38%
c i 35.90 1453 125 1 113  711  563 27% 29 430943 2358 38%
c i 36.92 1454 122 1 124  760  608 27% 29 430943 2357 38%
c i 37.25 1454 120 1 124  799  645 27% 29 430943 2356 38%
c i 37.65 1454 113 1 124  870  700 27% 28 430943 2355 38%
c } 38.16 1454 103 1 124 1000  813 27% 27 430943 2355 38%
c [ 38.16 1454  0 1 124 1000  813  0% 0 430943 2355 38%
c O 38.16 1454 68 1 124 1003  816 24% 65 430943 2355 38%
c i 38.16 1454 41 1 124 1005  816 19% 39 430943 2311 38%
c 
c  seconds    reductions  redundant   irredundant
c          MB     restarts       trail       variables
c            level   conflicts       glue         remaining
c 
c i 38.58 1455 17 1 124 1054  849 25% 15 430943 2310 38%
c i 38.64 1455 20 1 124 1083  875 28% 17 430943 2309 37%
c - 39.76 1643 27 2 124 1280  920 31% 24 429904 2309 37%
c - 41.53 1644 38 3 125 2751 1495 31% 32 429904 2309 37%
c i 41.58 1643 38 3 125 2767 1509 31% 32 429904 2308 37%
c ] 41.68 1643 38 3 125 3005 1649 31% 32 429904 2308 37%
c { 41.68 1644 103 3 125 3005 1649 27% 27 429904 2308 37%
c F 42.20 1643 103 3 125 3006 1650  8% 27 429901 2308 37%
c i 42.48 1643 101 3 125 3027 1669 43% 27 429901 2307 37%
c i 42.83 1643 76 3 125 3521 2049 51% 23 429901 2306 37%
c i 42.87 1643 73 3 125 3608 2106 51% 23 429901 2305 37%
c i 43.71 1643 71 3 132 3789 2263 50% 23 429901 2304 37%
c i 44.01 1643 70 3 137 3846 2316 50% 23 429901 2303 37%
c i 44.98 1534 68 3 154 4033 2483 49% 23 429901 2302 37%
c i 45.70 1534 68 3 171 4112 2543 49% 23 429901 2301 37%
c i 45.74 1534 68 3 173 4117 2547 49% 23 429901 2300 37%
c i 46.63 1534 68 3 189 4188 2613 49% 24 429901 2299 37%
c i 47.06 1534 69 3 196 4225 2647 49% 24 429901 2289 37%
c i 49.70 1535 67 3 248 4541 2907 49% 25 429901 2282 37%
c i 49.75 1535 67 3 248 4548 2912 49% 25 429901 2281 37%
c 
c  seconds    reductions  redundant   irredundant
c          MB     restarts       trail       variables
c            level   conflicts       glue         remaining
c 
c i 49.81 1535 67 3 249 4554 2915 49% 25 429901 2279 37%
c i 51.31 1535 67 3 285 4697 3041 48% 25 429901 2278 37%
c - 52.01 1526 68 4 289 4712 2251 48% 26 429606 2278 37%
c d 54.64 1526 66 4 328 5000 2420 45% 25 429594 2272 37%
c 2 54.73 1526 66 4 328 5000 3436 45% 25 429594 2271 37%
c p 61.61 1526 66 4 328 5000 5675 45% 25 429594 2248 36%
c d 62.27 1526 66 4 328 5000 5604 45% 25 429521 2247 36%
c # 68.28 1526 62 4 440 6010 6405 46% 27 429521 2247 36%
c } 70.47 1526 56 4 458 7006 7174 46% 25 429521 2247 36%
c [ 70.47 1526 38 4 458 7006 7174 83% 32 429521 2247 36%
c - 71.06 1523 38 5 459 7162 3329 81% 31 429521 2247 36%
c I 73.41 1523 30 5 460 10011 5065 62% 25 429521 2247 36%
c - 73.96 1523 31 6 460 10105 3445 62% 26 429521 2247 36%
c - 77.72 1347 45 7 463 13538 4324 56% 36 429521 2247 36%
c p 81.34 1347 47 7 463 15002 8592 55% 39 429521 2247 36%
c ] 81.49 1347 47 7 463 15007 8597 55% 39 429521 2247 36%
c { 81.49 1347 56 7 463 15007 8597 46% 25 429521 2247 36%
c B 81.57 1347 56 7 464 15016 8602 46% 25 429521 2247 36%
c - 86.22 1524 46 8 522 17457 5330 47% 23 429521 2247 36%
c s 93.52 1524 46 8 665 18774 6161 47% 24 428196 2247 36%
c 
c  seconds     reductions   redundant   irredundant
c           MB     restarts        trail       variables
c             level    conflicts       glue         remaining
c 
c v 100.54 1524 46 8 665 18774 6161 47% 24 428187 2247 36%
c t 100.71 1524 46 8 665 18774 6156 47% 24 428178 2247 36%
c e 102.27 1524 46 8 665 18774 5408 47% 24 425580 914 15%
c s 102.41 1524 46 8 665 18774 5405 47% 24 425530 914 15%
c W 114.66 1347 46 8 906 21018 7194 69% 25 425530 914 15%
c - 117.67 1348 46 9 973 21869 6098 69% 25 425530 914 15%
c - 133.17 1348 44 10 1361 26755 6856 70% 26 425530 914 15%
c F 133.59 1348 43 10 1362 28021 7739 70% 25 425530 914 15%
c p 145.84 1348 43 10 1553 30002 11846 70% 26 425530 914 15%
c } 147.72 1348 42 10 1580 31010 12594 71% 26 425530 914 15%
c [ 147.72 1348 47 10 1580 31010 12594 139% 39 425530 914 15%
c - 148.78 1348 45 11 1580 32130 7780 132% 37 425530 914 15%
c B 152.66 1348 40 11 1583 36024 10368 116% 33 425530 914 15%
c - 154.10 1348 40 12 1584 37996 7840 111% 33 425530 914 15%
c - 157.69 1348 42 13 1587 44348 8072 100% 35 425530 914 15%
c W 159.38 1348 42 13 1587 45026 8533 99% 35 425530 914 15%
c p 163.35 1348 40 13 1588 50004 14790 94% 34 425530 914 15%
c - 164.26 1348 40 14 1588 51191 9248 94% 34 425530 914 15%
c O 166.05 1348 39 14 1589 55027 11747 91% 33 425530 914 15%
c - 168.22 1348 37 15 1592 58522 9843 89% 32 425530 914 15%
c 
c  seconds     reductions      redundant   irredundant
c           MB      restarts          trail       variables
c             level      conflicts        glue        remaining
c 
c ] 171.12 1348 35 15 1595 63010 13159 87% 30 425530 914 15%
c { 171.12 1348 42 15 1595 63010 13159 71% 26 425530 914 15%
c B 177.07 1348 41 15 1696 66029 15309 71% 25 425530 914 15%
c - 177.72 1348 41 16 1697 66341 10346 71% 25 425530 914 15%
c - 184.86 1348 36 17 1837 74648 10631 72% 23 425530 914 15%
c p 187.40 1348 36 17 1846 75004 13795 72% 23 425530 914 15%
c W 195.86 1348 36 17 2068 78031 15985 72% 23 425530 914 15%
c - 198.11 1348 32 18 2068 83447 11572 73% 22 425530 914 15%
c # 211.47 1348 31 18 2394 91033 16799 73% 21 425530 914 15%
c - 212.42 1348 31 19 2394 92732 12322 73% 21 425530 914 15%
c - 217.62 1348 28 20 2438 102506 12035 73% 20 425530 914 15%
c p 221.47 1348 27 20 2441 105005 16575 73% 20 425530 914 15%
c B 221.88 1348 27 20 2441 105039 16597 73% 20 425530 914 15%
c - 236.87 1348 27 21 2928 112772 14222 73% 20 425530 914 15%
c W 253.96 1348 28 21 3462 120041 19412 73% 20 425530 914 15%
c } 255.73 1348 27 21 3531 121068 19995 73% 20 425530 914 15%
c 1 255.73 1348 27 21 3531 121068 19995 73% 20 425530 914 15%
c 
c --- [ writing output ] -----------------------------------------------------
c 
c writing simplified CNF to DIMACS file 'simp/33.cubes5968.adj.simp1'
c * 255.73 1348 27 21 3531 121068 19995 73% 20 425530 914 15%
c opening file to write 'simp/33.cubes5968.adj.simp1'
c writing 'p cnf 6160 425530' header
c closing file 'simp/33.cubes5968.adj.simp1'
c after writing 202422153 bytes 193.0 MB
c wrote 425530 clauses in 1.42 seconds process time
c 
c --- [ writing extension ] --------------------------------------------------
c 
c writing extension stack to 'simp/33.cubes5968.adj.ext1'
c opening file to write 'simp/33.cubes5968.adj.ext1'
c closing file 'simp/33.cubes5968.adj.ext1'
c after writing 88559 bytes 0.1 MB
c wrote 3905 witnesses in 0.00 seconds process time
c 
c --- [ result ] -------------------------------------------------------------
c 
s SATISFIABLE
c 
c --- [ run-time profiling ] -------------------------------------------------
c 
c process time taken by individual solving procedures
c (percentage relative to process time for solving)
c 
c       206.65   87.22% search
c       168.37   71.06% unstable
c        32.48   13.71% stable
c        30.29   12.78% simplify
c        18.78    7.93% parse
c        18.14    7.66% probe
c         7.14    3.01% vivify
c         4.48    1.89% walk
c         2.78    1.17% elim
c         1.32    0.56% lucky
c         0.33    0.14% ternary
c         0.27    0.11% subsume
c   =================================
c       236.94   92.14% solve
c 
c last line shows process time for solving
c (percentage relative to total process time)
c 
c --- [ statistics ] ---------------------------------------------------------
c 
c chronological:             21491        17.75 %  of conflicts
c conflicts:                121068       510.97    per second
c decisions:                332156      1401.86    per second
c eliminated:                 1333        21.64 %  of all variables
c fixed:                       762        12.37 %  of all variables
c learned:                  118419        97.81 %  per conflict
c learned_lits:           23578438       100.00 %  learned literals
c minimized:                     0         0.00 %  learned literals
c shrunken:               14623718        62.02 %  learned literals
c minishrunken:            1941761         8.24 %  learned literals
c propagations:            9575035         0.04 M  per second
c reduced:                   63747        52.65 %  per conflict
c rephased:                     15      8071.20    interval
c restarts:                   3531        34.29    interval
c stabilizing:                   3        34.70 %  of conflicts
c substituted:                   7         0.11 %  of all variables
c subsumed:                  36191         1.00 %  of all clauses
c strengthened:               3859         0.11 %  of all clauses
c ternary:                    4576         0.81 %  of resolved
c vivified:                     15         0.00 %  of all clauses
c walked:                        4     30267.00    interval
c weakened:                   3143         3.06    average size
c 
c seconds are measured in process time for solving
c 
c --- [ resources ] ----------------------------------------------------------
c 
c total process time since initialization:       257.14    seconds
c total real time since initialization:          257.78    seconds
c maximum resident set size of process:         1831.77    MB
c 
c --- [ shutting down ] ------------------------------------------------------
c 
c exit 10
WARNING! DIMACS header mismatch: wrong number of variables.
============================[ Problem Statistics ]=============================
|                                                                             |
|  Number of variables:          6120                                         |
|  Number of clauses:          425532                                         |
|  Parse time:                   2.82 s                                       |
|  Simplification time:          0.06 s                                       |
|                                                                             |
============================[ Search Statistics ]====================================================
| Conflicts |          ORIGINAL         |          LEARNT          | Num Sols |      SUBGRAPHS      |
|           |    Vars  Clauses Literals |    Limit  Clauses Lit/Cl |          | Canonical Noncanon. |
=====================================================================================================
|       114 |    6030   425546 44062729 |     2000      114    167 |        0 |        16        14 |
|       270 |    6030   425552 44062833 |     2000      270    120 |        0 |        47        20 |
|       678 |    6030   425735 44065972 |     2000      678     82 |        0 |       111       203 |
|      1020 |    6030   425740 44066046 |     2000     1020    103 |        0 |       114       208 |
|      1586 |    6030   425800 44067409 |     2000     1586    105 |        0 |       157       268 |
|      2382 |    6030   425837 44068476 |     3603     1385     61 |        0 |       178       305 |
|      4403 |    6030   426719 44083419 |     3603     3406     59 |        0 |       377      1187 |
|     10826 |    6030   431434 44175415 |     6304     5530     23 |        0 |      1960      5902 |
|     14654 |    6030   432700 44201188 |     7559     6213     49 |        0 |      2231      7168 |
|     21746 |    6030   435948 44266461 |     9999     5145     14 |        0 |      2833     10416 |
|     28357 |    6030   436793 44283760 |    11212     6769     37 |        0 |      3006     11261 |
|     39003 |    6030   438790 44322717 |    12410    11813     66 |        0 |      3580     13258 |
|     71361 |    6030   458174 44676895 |    17219    15780     33 |        0 |      8049     32642 |
|    110160 |    6030   477512 45014612 |    22014    16574     34 |        0 |     10153     51980 |
|    144912 |    6030   483072 45116154 |    25613    16525     28 |        0 |     11202     57540 |
|    203994 |    6030   498365 45385457 |    30417    20811     43 |        0 |     14342     72833 |
|    274126 |    6030   502813 45475907 |    35217    26543     51 |        0 |     15307     77281 |
|    416536 |    6030   546697 46125261 |    43608    33144     55 |        0 |     19227    121165 |
|    581679 |    6030   564051 46404787 |    52019    33098     48 |        0 |     21405    138519 |
|    816654 |    6030   577343 46741281 |    61626    43280     50 |        0 |     24719    151811 |
|   1329414 |    6030   757578 49551615 |    78424    70238     62 |        1 |     36371    332045 |
|   1968797 |    6025   811821 50088949 |    93342    55539     27 |        1 |     47070    472640 |
=====================================================================================================
Number of solutions   : 1
Canonical subgraphs   : 49382          (13 /sec)
          order  3    : 1              (200000 /sec)
          order  4    : 1              (500000 /sec)
          order  5    : 1              (250000 /sec)
          order  6    : 1              (58824 /sec)
          order  7    : 1              (8772 /sec)
          order  8    : 2              (1362 /sec)
          order  9    : 6              (315 /sec)
          order 10    : 23             (90 /sec)
          order 11    : 111            (32 /sec)
          order 12    : 628            (10 /sec)
          order 13    : 3746           (12 /sec)
          order 14    : 3322           (25 /sec)
          order 15    : 30637          (17 /sec)
          order 16    : 6846           (8 /sec)
          order 17    : 2481           (6 /sec)
          order 18    : 1287           (7 /sec)
          order 19    : 245            (8 /sec)
          order 20    : 28             (9 /sec)
          order 21    : 14             (12 /sec)
          order 22    : 1              (1 /sec)
Noncanonical subgraphs: 499774         (110 /sec)
          order  3    : 0              (-nan /sec)
          order  4    : 0              (-nan /sec)
          order  5    : 0              (-nan /sec)
          order  6    : 0              (-nan /sec)
          order  7    : 0              (-nan /sec)
          order  8    : 0              (-nan /sec)
          order  9    : 0              (-nan /sec)
          order 10    : 0              (-nan /sec)
          order 11    : 0              (-nan /sec)
          order 12    : 0              (-nan /sec)
          order 13    : 8781           (6923 /sec)
          order 14    : 30460          (853 /sec)
          order 15    : 25723          (925 /sec)
          order 16    : 419905         (99 /sec)
          order 17    : 10844          (66 /sec)
          order 18    : 3885           (59 /sec)
          order 19    : 162            (37 /sec)
          order 20    : 0              (-nan /sec)
          order 21    : 0              (-nan /sec)
Canonicity checking   : 3723.58 s
Noncanonicity checking: 4562.17 s
Total canonicity time : 8285.74 s
database reductions   : 80
restarts              : 4092
conflicts             : 2102075        (225 /sec)
decisions             : 3121919        (0.00 % random) (334 /sec)
propagations          : 96268905       (10293 /sec)
conflict literals     : 202792479      (53.80 % deleted)
actual reward         : 0.247932
Memory used           : 631.00 MB
CPU time              : 9352.51 s

UNSATISFIABLE
